% seed = 0

mint = 14;
% maxt = 42;

nActs = 22;
dur = [0,3,3,4,1,1,1,2,1,2,1,1,2,2,3,4,1,2,4,1,3,0];

nSkills = 10;
sreq = [| 0,0,0,0,0,0,0,0,0,0,
	| 0,1,0,0,1,0,0,0,2,1,
	| 0,0,0,0,0,1,0,3,0,0,
	| 1,1,0,0,0,0,1,0,0,0,
	| 0,0,0,0,0,0,0,1,0,0,
	| 0,0,1,0,1,0,0,2,0,0,
	| 0,0,0,0,0,0,1,1,2,0,
	| 0,2,0,0,0,0,0,2,0,0,
	| 0,0,0,1,0,0,1,0,3,0,
	| 0,0,0,0,2,0,0,0,2,0,
	| 0,0,0,0,0,0,0,1,0,0,
	| 0,0,1,0,0,0,1,1,2,0,
	| 0,0,0,0,0,0,0,2,0,0,
	| 0,0,0,1,0,0,1,0,0,0,
	| 1,0,1,0,1,0,1,0,0,0,
	| 0,0,0,1,1,1,0,0,0,0,
	| 2,0,0,0,0,0,0,2,0,0,
	| 1,1,1,0,0,0,0,0,1,0,
	| 0,1,0,0,0,1,0,0,0,0,
	| 0,0,0,0,0,0,0,2,0,0,
	| 0,0,0,1,0,0,2,0,2,0,
	| 0,0,0,0,0,0,0,0,0,0, |];

% SumOfsreq = 68;

nResources = 10;
mastery = [| false,false,false,false,false,true,false,true,true,false,
	| false,false,true,false,false,false,false,true,true,false,
	| false,false,false,false,false,false,true,true,true,false,
	| false,false,false,false,true,false,true,true,false,false,
	| false,false,false,true,true,false,false,false,true,false,
	| true,false,true,false,false,false,false,false,true,false,
	| true,false,false,true,false,false,true,false,false,false,
	| false,true,true,false,false,false,true,false,false,false,
	| false,true,false,false,true,false,false,false,true,false,
	| false,true,false,false,false,false,false,true,false,true, |];

nPrecs = 40;
pred = [1,1,1,2,2,2,3,3,3,4,5,5,5,6,6,6,7,7,8,8,8,9,10,11,11,12,12,12,13,14,15,16,16,16,17,18,18,19,20,21];
succ = [2,3,4,10,5,6,10,5,15,9,9,18,14,16,7,8,11,15,9,18,12,13,17,18,21,13,14,15,21,17,20,19,20,21,19,19,20,22,22,22];

nUnrels = 96;
unpred = [2,2,3,3,3,3,3,3,3,4,4,4,4,4,4,4,4,4,4,4,4,4,4,5,5,5,5,5,5,5,5,6,7,7,7,7,7,7,7,7,8,8,8,9,9,9,9,9,9,9,9,9,9,10,10,10,10,10,10,10,10,10,11,11,11,11,11,11,12,12,13,13,13,13,13,13,13,14,14,14,14,14,15,15,15,15,15,16,16,17,17,17,18,19,19,20];
unsucc = [3,4,4,6,7,8,11,12,16,5,6,7,8,10,11,12,14,15,16,17,18,19,20,6,7,8,10,11,12,15,16,10,8,9,10,12,13,14,16,17,10,11,16,10,11,12,14,15,16,17,18,19,20,11,12,13,14,15,16,18,20,21,12,13,14,15,16,17,16,18,14,15,16,17,18,19,20,15,16,18,20,21,16,17,18,19,21,17,18,18,20,21,21,20,21,21];

USEFUL_RES = [{},
	{1,2,3,4,5,6,8,9,10},
	{1,2,3,4,10},
	{3,4,6,7,8,9,10},
	{1,2,3,4,10},
	{1,2,3,4,5,6,8,9,10},
	{1,2,3,4,5,6,7,8,9,10},
	{1,2,3,4,8,9,10},
	{1,2,3,4,5,6,7,8,9},
	{1,2,3,4,5,6,9},
	{1,2,3,4,10},
	{1,2,3,4,5,6,7,8,9,10},
	{1,2,3,4,10},
	{3,4,5,7,8},
	{2,3,4,5,6,7,8,9},
	{1,4,5,7,9},
	{1,2,3,4,6,7,10},
	{1,2,3,5,6,7,8,9,10},
	{1,8,9,10},
	{1,2,3,4,10},
	{1,2,3,4,5,6,7,8,9},
	{}];

POTENTIAL_ACT = [{2,3,5,6,7,8,9,10,11,12,13,16,17,18,19,20,21},
	{2,3,5,6,7,8,9,10,11,12,13,15,17,18,20,21},
	{2,3,4,5,6,7,8,9,10,11,12,13,14,15,17,18,20,21},
	{2,3,4,5,6,7,8,9,10,11,12,13,14,15,16,17,20,21},
	{2,6,7,9,10,12,14,15,16,18,21},
	{2,4,6,7,9,10,12,15,17,18,21},
	{4,7,9,12,14,15,16,17,18,21},
	{2,4,6,7,8,9,12,14,15,18,19,21},
	{2,4,6,7,8,9,10,12,15,16,18,19,21},
	{2,3,4,5,6,7,8,11,12,13,17,18,19,20}];
